NAME = SAfile175,
TOURSIZE = 175,
LENGTH = 21429,
60,175,124,8,57,155,125,129,55,106,51,107,12,121,22,165,33,18,122,164,126,27,1,131,40,61,156,79,98,67,163,35,117,14,150,147,169,28,168,23,65,100,58,160,42,6,16,146,83,2,137,17,110,139,25,9,45,166,154,87,68,29,133,116,15,62,171,119,46,89,148,49,118,72,26,5,39,120,19,93,69,31,114,48,92,170,53,64,159,105,50,103,167,123,102,144,80,172,32,157,82,44,97,136,161,47,37,38,113,74,7,75,108,13,127,101,73,66,77,10,128,59,11,173,24,70,149,85,84,151,104,112,81,71,91,153,140,99,132,36,41,134,21,138,52,115,43,20,109,4,174,162,78,96,145,63,130,34,143,95,54,141,152,135,94,158,90,88,111,76,86,56,30,3,142